

******************************************************************************
This program contains Ipopt, a library for large-scale nonlinear optimization.
 Ipopt is released as open source code under the Eclipse Public License (EPL).
         For more information visit http://projects.coin-or.org/Ipopt
******************************************************************************

This is Ipopt version 3.12.8, running with linear solver mumps.
NOTE: Other linear solvers might be more efficient (see Ipopt documentation).

Number of nonzeros in equality constraint Jacobian...:        0
Number of nonzeros in inequality constraint Jacobian.:        2
Number of nonzeros in Lagrangian Hessian.............:        3

Total number of variables............................:        2
                     variables with only lower bounds:        0
                variables with lower and upper bounds:        2
                     variables with only upper bounds:        0
Total number of equality constraints.................:        0
Total number of inequality constraints...............:        1
        inequality constraints with only lower bounds:        0
   inequality constraints with lower and upper bounds:        0
        inequality constraints with only upper bounds:        1

iter    objective    inf_pr   inf_du lg(mu)  ||d||  lg(rg) alpha_du alpha_pr  ls
   0 -2.5266216e+00 0.00e+00 6.61e-01  -1.0 0.00e+00    -  0.00e+00 0.00e+00   0
   1 -2.5345760e+00 0.00e+00 1.25e-01  -1.7 3.46e-02    -  8.64e-01 1.00e+00f  1
   2 -2.5455524e+00 0.00e+00 8.16e-02  -2.5 8.16e-02    -  6.88e-01 1.00e+00f  1
   3 -2.5492705e+00 0.00e+00 7.69e-03  -2.5 1.01e-01    -  1.00e+00 1.00e+00f  1
   4 -2.5494128e+00 0.00e+00 1.70e-04  -3.8 2.17e-02    -  1.00e+00 1.00e+00f  1
   5 -2.5494148e+00 0.00e+00 5.39e-07  -5.7 2.02e-03    -  1.00e+00 1.00e+00f  1
   6 -2.5494148e+00 0.00e+00 2.00e-10  -8.6 1.91e-05    -  1.00e+00 1.00e+00f  1

Number of Iterations....: 6

                                   (scaled)                 (unscaled)
Objective...............:  -2.5494147680057595e+00   -2.5494147680057595e+00
Dual infeasibility......:   1.9973219541801412e-10    1.9973219541801412e-10
Constraint violation....:   0.0000000000000000e+00    0.0000000000000000e+00
Complementarity.........:   3.6001102023168282e-09    3.6001102023168282e-09
Overall NLP error.......:   3.6001102023168282e-09    3.6001102023168282e-09


Number of objective function evaluations             = 7
Number of objective gradient evaluations             = 7
Number of equality constraint evaluations            = 0
Number of inequality constraint evaluations          = 7
Number of equality constraint Jacobian evaluations   = 0
Number of inequality constraint Jacobian evaluations = 7
Number of Lagrangian Hessian evaluations             = 6
Total CPU secs in IPOPT (w/o function evaluations)   =      0.002
Total CPU secs in NLP function evaluations           =      0.000

EXIT: Optimal Solution Found.
 
Ipopt 3.12.8: Optimal Solution Found
